(set-info :smt-lib-version 2.6)
(set-logic QF_NIA)
(set-info :source |
Generated by: Cristina Borralleras, Daniel Larraz, Albert Oliveras, Enric Rodriguez-Carbonell, Albert Rubio
Generated on: 2017-04-27
Generator: VeryMax
Application: Termination proving
Target solver: barcelogic
|)
(set-info :license "https://creativecommons.org/licenses/by/4.0/")
(set-info :category "industrial")
(set-info :status unsat)
(declare-fun Nl3c^01 () Int)
(declare-fun Nl3d^01 () Int)
(declare-fun Nl3f^01 () Int)
(declare-fun Nl3r^01 () Int)
(declare-fun Nl3s^01 () Int)
(declare-fun Nl10c^01 () Int)
(declare-fun Nl10d^01 () Int)
(declare-fun Nl10f^01 () Int)
(declare-fun Nl10r^01 () Int)
(declare-fun Nl10s^01 () Int)
(declare-fun lam0n0 () Int)
(declare-fun lam0n1 () Int)
(declare-fun lam0n2 () Int)
(declare-fun lam0n3 () Int)
(declare-fun lam0n4 () Int)
(declare-fun lam0n5 () Int)
(declare-fun Nl3CT1 () Int)
(declare-fun lam1n0 () Int)
(declare-fun lam1n1 () Int)
(declare-fun lam1n2 () Int)
(declare-fun lam1n3 () Int)
(declare-fun lam1n4 () Int)
(declare-fun lam1n5 () Int)
(declare-fun Nl10CT1 () Int)
(declare-fun lam2n0 () Int)
(declare-fun lam2n1 () Int)
(declare-fun lam2n2 () Int)
(declare-fun lam2n3 () Int)
(declare-fun lam2n5 () Int)
(declare-fun lam2n4 () Int)
(declare-fun lam3n0 () Int)
(declare-fun lam3n1 () Int)
(declare-fun lam3n2 () Int)
(declare-fun lam3n3 () Int)
(declare-fun lam3n5 () Int)
(declare-fun lam3n4 () Int)
(declare-fun lam4n0 () Int)
(declare-fun lam4n1 () Int)
(declare-fun lam4n2 () Int)
(declare-fun lam4n3 () Int)
(declare-fun lam4n4 () Int)
(declare-fun lam4n5 () Int)
(declare-fun lam4n7 () Int)
(declare-fun lam4n6 () Int)
(declare-fun lam5n0 () Int)
(declare-fun lam5n1 () Int)
(declare-fun lam5n2 () Int)
(declare-fun lam5n3 () Int)
(declare-fun lam5n4 () Int)
(declare-fun lam5n5 () Int)
(declare-fun lam5n7 () Int)
(declare-fun lam5n6 () Int)
(declare-fun lam6n0 () Int)
(declare-fun lam6n1 () Int)
(declare-fun lam6n2 () Int)
(declare-fun lam6n3 () Int)
(declare-fun lam6n4 () Int)
(declare-fun lam6n6 () Int)
(declare-fun lam6n5 () Int)
(declare-fun lam7n0 () Int)
(declare-fun lam7n1 () Int)
(declare-fun lam7n2 () Int)
(declare-fun lam7n3 () Int)
(declare-fun lam7n4 () Int)
(declare-fun lam7n6 () Int)
(declare-fun lam7n5 () Int)
(declare-fun lam10n0 () Int)
(declare-fun lam10n1 () Int)
(declare-fun lam10n2 () Int)
(declare-fun lam10n3 () Int)
(declare-fun lam10n4 () Int)
(declare-fun lam10n5 () Int)
(declare-fun RFN1_CT () Int)
(declare-fun RFN1_d^0 () Int)
(declare-fun RFN1_s^0 () Int)
(declare-fun RFN1___const_255^0 () Int)
(declare-fun RFN1_c^0 () Int)
(declare-fun RFN1_f^0 () Int)
(declare-fun RFN1_r^0 () Int)
(declare-fun lam13n0 () Int)
(declare-fun lam13n1 () Int)
(declare-fun lam13n2 () Int)
(declare-fun lam13n3 () Int)
(declare-fun lam13n5 () Int)
(declare-fun lam13n4 () Int)
(declare-fun lam16n0 () Int)
(declare-fun lam16n1 () Int)
(declare-fun lam16n2 () Int)
(declare-fun lam16n3 () Int)
(declare-fun lam16n4 () Int)
(declare-fun lam16n5 () Int)
(declare-fun lam16n7 () Int)
(declare-fun lam16n6 () Int)
(declare-fun lam14n0 () Int)
(declare-fun lam14n1 () Int)
(declare-fun lam14n2 () Int)
(declare-fun lam14n3 () Int)
(declare-fun lam14n4 () Int)
(declare-fun lam14n5 () Int)
(declare-fun lam14n7 () Int)
(declare-fun lam14n6 () Int)
(declare-fun lam15n0 () Int)
(declare-fun lam15n1 () Int)
(declare-fun lam15n2 () Int)
(declare-fun lam15n3 () Int)
(declare-fun lam15n4 () Int)
(declare-fun lam15n5 () Int)
(declare-fun lam15n7 () Int)
(declare-fun lam15n6 () Int)
(declare-fun lam17n0 () Int)
(declare-fun lam17n1 () Int)
(declare-fun lam17n2 () Int)
(declare-fun lam17n3 () Int)
(declare-fun lam17n4 () Int)
(declare-fun lam17n5 () Int)
(declare-fun lam17n7 () Int)
(declare-fun lam17n6 () Int)
(assert ( and ( <= ( - 2 ) Nl3c^01 ) ( <= Nl3c^01 2 ) ( <= ( - 2 ) Nl3d^01 ) ( <= Nl3d^01 2 ) ( <= ( - 2 ) Nl3f^01 ) ( <= Nl3f^01 2 ) ( <= ( - 2 ) Nl3r^01 ) ( <= Nl3r^01 2 ) ( <= ( - 2 ) Nl3s^01 ) ( <= Nl3s^01 2 ) ( <= ( - 2 ) Nl10c^01 ) ( <= Nl10c^01 2 ) ( <= ( - 2 ) Nl10d^01 ) ( <= Nl10d^01 2 ) ( <= ( - 2 ) Nl10f^01 ) ( <= Nl10f^01 2 ) ( <= ( - 2 ) Nl10r^01 ) ( <= Nl10r^01 2 ) ( <= ( - 2 ) Nl10s^01 ) ( <= Nl10s^01 2 ) ))
(assert ( or ( and ( >= lam0n0 0 ) ( >= lam0n1 0 ) ( >= lam0n2 0 ) ( >= lam0n3 0 ) ( >= lam0n4 0 ) ( >= lam0n5 0 ) ( > ( + ( * ( - 1 ) lam0n2 ) ( * 2 lam0n3 ) ( * 2 lam0n4 ) ( * Nl3CT1 lam0n5 ) ( - 1 ) ) 0 ) ( = ( * ( - 1 ) lam0n0 ) 0 ) ( = ( + ( * 1 lam0n0 ) ( * ( - 1 ) lam0n3 ) ( * Nl3c^01 lam0n5 ) ) 0 ) ( = ( + ( * ( - 1 ) lam0n4 ) ( * Nl3d^01 lam0n5 ) ) 0 ) ( = ( + ( * ( - 1 ) lam0n1 ) ( * 1 lam0n2 ) ( * ( - 1 ) lam0n3 ) ( * Nl3f^01 lam0n5 ) ) 0 ) ( = ( * Nl3r^01 lam0n5 ) 0 ) ( = ( + ( * 1 lam0n0 ) ( * Nl3s^01 lam0n5 ) ) 0 ) ) ( and ( >= lam1n0 0 ) ( >= lam1n1 0 ) ( >= lam1n2 0 ) ( >= lam1n3 0 ) ( >= lam1n4 0 ) ( >= lam1n5 0 ) ( > ( + ( * ( - 1 ) lam1n2 ) ( * 2 lam1n3 ) ( * 2 lam1n4 ) ( * Nl3CT1 lam1n5 ) ( - 1 ( + ( + Nl10CT1 ( * Nl10d^01 2 ) ) ( * Nl10s^01 0 ) ) ) ) 0 ) ( = ( * ( - 1 ) lam1n0 ) 0 ) ( = ( + ( * 1 lam1n0 ) ( * ( - 1 ) lam1n3 ) ( * Nl3c^01 lam1n5 ) ( - ( + ( + 0 Nl10c^01 ) ( * Nl10s^01 1 ) ) ) ) 0 ) ( = ( + ( * ( - 1 ) lam1n4 ) ( * Nl3d^01 lam1n5 ) ) 0 ) ( = ( + ( * ( - 1 ) lam1n1 ) ( * 1 lam1n2 ) ( * ( - 1 ) lam1n3 ) ( * Nl3f^01 lam1n5 ) ( - ( + 0 Nl10f^01 ) ) ) 0 ) ( = ( + ( * Nl3r^01 lam1n5 ) ( - ( + 0 Nl10r^01 ) ) ) 0 ) ( = ( + ( * 1 lam1n0 ) ( * Nl3s^01 lam1n5 ) ( - ( + 0 ( * Nl10s^01 1 ) ) ) ) 0 ) ) ))
(assert ( or ( and ( >= lam2n0 0 ) ( >= lam2n1 0 ) ( >= lam2n2 0 ) ( >= lam2n3 0 ) ( >= lam2n5 0 ) ( > ( + ( * ( - 1 ) lam2n2 ) ( * 2 lam2n3 ) ( * Nl3CT1 lam2n5 ) ( - 1 ) ) 0 ) ( = ( * ( - 1 ) lam2n0 ) 0 ) ( = ( + ( * 1 lam2n0 ) ( * ( - 1 ) lam2n3 ) ( * Nl3c^01 lam2n5 ) ) 0 ) ( = ( + ( * 1 lam2n4 ) ( * Nl3d^01 lam2n5 ) ) 0 ) ( = ( + ( * ( - 1 ) lam2n1 ) ( * 1 lam2n2 ) ( * ( - 1 ) lam2n3 ) ( * Nl3f^01 lam2n5 ) ) 0 ) ( = ( * Nl3r^01 lam2n5 ) 0 ) ( = ( + ( * 1 lam2n0 ) ( * Nl3s^01 lam2n5 ) ) 0 ) ) ( and ( >= lam3n0 0 ) ( >= lam3n1 0 ) ( >= lam3n2 0 ) ( >= lam3n3 0 ) ( >= lam3n5 0 ) ( > ( + ( * ( - 1 ) lam3n2 ) ( * 2 lam3n3 ) ( * Nl3CT1 lam3n5 ) ( - 1 ( + ( + Nl10CT1 ( * Nl10d^01 2 ) ) ( * Nl10s^01 0 ) ) ) ) 0 ) ( = ( * ( - 1 ) lam3n0 ) 0 ) ( = ( + ( * 1 lam3n0 ) ( * ( - 1 ) lam3n3 ) ( * Nl3c^01 lam3n5 ) ( - ( + ( + 0 Nl10c^01 ) ( * Nl10s^01 1 ) ) ) ) 0 ) ( = ( + ( * 1 lam3n4 ) ( * Nl3d^01 lam3n5 ) ) 0 ) ( = ( + ( * ( - 1 ) lam3n1 ) ( * 1 lam3n2 ) ( * ( - 1 ) lam3n3 ) ( * Nl3f^01 lam3n5 ) ( - ( + 0 Nl10f^01 ) ) ) 0 ) ( = ( + ( * Nl3r^01 lam3n5 ) ( - ( + 0 Nl10r^01 ) ) ) 0 ) ( = ( + ( * 1 lam3n0 ) ( * Nl3s^01 lam3n5 ) ( - ( + 0 ( * Nl10s^01 1 ) ) ) ) 0 ) ) ))
(assert ( or ( and ( >= lam4n0 0 ) ( >= lam4n1 0 ) ( >= lam4n2 0 ) ( >= lam4n3 0 ) ( >= lam4n4 0 ) ( >= lam4n5 0 ) ( >= lam4n7 0 ) ( > ( + ( * 1 lam4n2 ) ( * ( - 1 ) lam4n3 ) ( * ( - 1 ) lam4n4 ) ( * 2 lam4n5 ) ( * Nl10CT1 lam4n7 ) ( - 1 ) ) 0 ) ( = ( + ( * 1 lam4n0 ) ( * ( - 1 ) lam4n5 ) ( * Nl10c^01 lam4n7 ) ) 0 ) ( = ( + ( * ( - 1 ) lam4n1 ) ( * 1 lam4n3 ) ( * ( - 1 ) lam4n4 ) ( * Nl10d^01 lam4n7 ) ) 0 ) ( = ( + ( * 1 lam4n4 ) ( * 1 lam4n6 ) ( * Nl10f^01 lam4n7 ) ) 0 ) ( = ( + ( * ( - 1 ) lam4n2 ) ( * Nl10r^01 lam4n7 ) ) 0 ) ( = ( + ( * ( - 1 ) lam4n0 ) ( * Nl10s^01 lam4n7 ) ) 0 ) ( = ( * 1 lam4n2 ) 0 ) ) ( and ( >= lam5n0 0 ) ( >= lam5n1 0 ) ( >= lam5n2 0 ) ( >= lam5n3 0 ) ( >= lam5n4 0 ) ( >= lam5n5 0 ) ( >= lam5n7 0 ) ( > ( + ( * 1 lam5n2 ) ( * ( - 1 ) lam5n3 ) ( * ( - 1 ) lam5n4 ) ( * 2 lam5n5 ) ( * Nl10CT1 lam5n7 ) ( - 1 ( + ( + Nl10CT1 ( * Nl10d^01 1 ) ) ( * Nl10s^01 0 ) ) ) ) 0 ) ( = ( + ( * 1 lam5n0 ) ( * ( - 1 ) lam5n5 ) ( * Nl10c^01 lam5n7 ) ( - ( + ( + 0 Nl10c^01 ) ( * Nl10s^01 ( - 1 ) ) ) ) ) 0 ) ( = ( + ( * ( - 1 ) lam5n1 ) ( * 1 lam5n3 ) ( * ( - 1 ) lam5n4 ) ( * Nl10d^01 lam5n7 ) ) 0 ) ( = ( + ( * 1 lam5n4 ) ( * 1 lam5n6 ) ( * Nl10f^01 lam5n7 ) ( - ( + 0 Nl10f^01 ) ) ) 0 ) ( = ( + ( * ( - 1 ) lam5n2 ) ( * Nl10r^01 lam5n7 ) ( - ( + 0 Nl10r^01 ) ) ) 0 ) ( = ( + ( * ( - 1 ) lam5n0 ) ( * Nl10s^01 lam5n7 ) ( - ( + 0 ( * Nl10s^01 1 ) ) ) ) 0 ) ( = ( * 1 lam5n2 ) 0 ) ) ))
(assert ( or ( and ( >= lam6n0 0 ) ( >= lam6n1 0 ) ( >= lam6n2 0 ) ( >= lam6n3 0 ) ( >= lam6n4 0 ) ( >= lam6n6 0 ) ( > ( + ( * 1 lam6n1 ) ( * ( - 1 ) lam6n2 ) ( * 2 lam6n3 ) ( * ( - 2 ) lam6n4 ) ( * Nl10CT1 lam6n6 ) ( - 1 ) ) 0 ) ( = ( + ( * ( - 1 ) lam6n3 ) ( * Nl10c^01 lam6n6 ) ) 0 ) ( = ( + ( * ( - 1 ) lam6n0 ) ( * ( - 1 ) lam6n2 ) ( * 1 lam6n4 ) ( * Nl10d^01 lam6n6 ) ) 0 ) ( = ( + ( * 1 lam6n2 ) ( * 1 lam6n5 ) ( * Nl10f^01 lam6n6 ) ) 0 ) ( = ( + ( * 1 lam6n1 ) ( * Nl10r^01 lam6n6 ) ) 0 ) ( = ( * Nl10s^01 lam6n6 ) 0 ) ( = ( * ( - 1 ) lam6n1 ) 0 ) ) ( and ( >= lam7n0 0 ) ( >= lam7n1 0 ) ( >= lam7n2 0 ) ( >= lam7n3 0 ) ( >= lam7n4 0 ) ( >= lam7n6 0 ) ( > ( + ( * 1 lam7n1 ) ( * ( - 1 ) lam7n2 ) ( * 2 lam7n3 ) ( * ( - 2 ) lam7n4 ) ( * Nl10CT1 lam7n6 ) ( - 1 Nl3CT1 ) ) 0 ) ( = ( + ( * ( - 1 ) lam7n3 ) ( * Nl10c^01 lam7n6 ) ( - ( + 0 Nl3c^01 ) ) ) 0 ) ( = ( + ( * ( - 1 ) lam7n0 ) ( * ( - 1 ) lam7n2 ) ( * 1 lam7n4 ) ( * Nl10d^01 lam7n6 ) ( - ( + 0 Nl3d^01 ) ) ) 0 ) ( = ( + ( * 1 lam7n2 ) ( * 1 lam7n5 ) ( * Nl10f^01 lam7n6 ) ( - ( + 0 Nl3f^01 ) ) ) 0 ) ( = ( + ( * 1 lam7n1 ) ( * Nl10r^01 lam7n6 ) ( - ( + 0 Nl3r^01 ) ) ) 0 ) ( = ( + ( * Nl10s^01 lam7n6 ) ( - ( + 0 Nl3s^01 ) ) ) 0 ) ( = ( * ( - 1 ) lam7n1 ) 0 ) ) ))
(assert ( and ( or ( and ( >= lam0n0 0 ) ( >= lam0n1 0 ) ( >= lam0n2 0 ) ( >= lam0n3 0 ) ( >= lam0n4 0 ) ( >= lam0n5 0 ) ( > ( + ( * ( - 1 ) lam0n2 ) ( * 2 lam0n3 ) ( * 2 lam0n4 ) ( * Nl3CT1 lam0n5 ) ( - 1 ) ) 0 ) ( = ( * ( - 1 ) lam0n0 ) 0 ) ( = ( + ( * 1 lam0n0 ) ( * ( - 1 ) lam0n3 ) ( * Nl3c^01 lam0n5 ) ) 0 ) ( = ( + ( * ( - 1 ) lam0n4 ) ( * Nl3d^01 lam0n5 ) ) 0 ) ( = ( + ( * ( - 1 ) lam0n1 ) ( * 1 lam0n2 ) ( * ( - 1 ) lam0n3 ) ( * Nl3f^01 lam0n5 ) ) 0 ) ( = ( * Nl3r^01 lam0n5 ) 0 ) ( = ( + ( * 1 lam0n0 ) ( * Nl3s^01 lam0n5 ) ) 0 ) ) ( and ( >= lam10n0 0 ) ( >= lam10n1 0 ) ( >= lam10n2 0 ) ( >= lam10n3 0 ) ( >= lam10n4 0 ) ( >= lam10n5 0 ) ( > ( + ( * ( - 1 ) lam10n2 ) ( * 2 lam10n3 ) ( * 2 lam10n4 ) ( * Nl3CT1 lam10n5 ) ( - 1 ( - ( + ( + RFN1_CT ( * RFN1_d^0 2 ) ) ( * RFN1_s^0 0 ) ) RFN1_CT ) ) ) 0 ) ( = ( + ( * ( - 1 ) lam10n0 ) ( - ( - ( + 0 RFN1___const_255^0 ) RFN1___const_255^0 ) ) ) 0 ) ( = ( + ( * 1 lam10n0 ) ( * ( - 1 ) lam10n3 ) ( * Nl3c^01 lam10n5 ) ( - ( - ( + ( + 0 RFN1_c^0 ) ( * RFN1_s^0 1 ) ) RFN1_c^0 ) ) ) 0 ) ( = ( + ( * ( - 1 ) lam10n4 ) ( * Nl3d^01 lam10n5 ) ( - ( - RFN1_d^0 ) ) ) 0 ) ( = ( + ( * ( - 1 ) lam10n1 ) ( * 1 lam10n2 ) ( * ( - 1 ) lam10n3 ) ( * Nl3f^01 lam10n5 ) ( - ( - ( + 0 RFN1_f^0 ) RFN1_f^0 ) ) ) 0 ) ( = ( + ( * Nl3r^01 lam10n5 ) ( - ( - ( + 0 RFN1_r^0 ) RFN1_r^0 ) ) ) 0 ) ( = ( + ( * 1 lam10n0 ) ( * Nl3s^01 lam10n5 ) ( - ( - ( + 0 ( * RFN1_s^0 1 ) ) RFN1_s^0 ) ) ) 0 ) ) ) ( or ( and ( >= lam2n0 0 ) ( >= lam2n1 0 ) ( >= lam2n2 0 ) ( >= lam2n3 0 ) ( >= lam2n5 0 ) ( > ( + ( * ( - 1 ) lam2n2 ) ( * 2 lam2n3 ) ( * Nl3CT1 lam2n5 ) ( - 1 ) ) 0 ) ( = ( * ( - 1 ) lam2n0 ) 0 ) ( = ( + ( * 1 lam2n0 ) ( * ( - 1 ) lam2n3 ) ( * Nl3c^01 lam2n5 ) ) 0 ) ( = ( + ( * 1 lam2n4 ) ( * Nl3d^01 lam2n5 ) ) 0 ) ( = ( + ( * ( - 1 ) lam2n1 ) ( * 1 lam2n2 ) ( * ( - 1 ) lam2n3 ) ( * Nl3f^01 lam2n5 ) ) 0 ) ( = ( * Nl3r^01 lam2n5 ) 0 ) ( = ( + ( * 1 lam2n0 ) ( * Nl3s^01 lam2n5 ) ) 0 ) ) ( and ( >= lam13n0 0 ) ( >= lam13n1 0 ) ( >= lam13n2 0 ) ( >= lam13n3 0 ) ( >= lam13n5 0 ) ( > ( + ( * ( - 1 ) lam13n2 ) ( * 2 lam13n3 ) ( * Nl3CT1 lam13n5 ) ( - 1 ( - ( + ( + RFN1_CT ( * RFN1_d^0 2 ) ) ( * RFN1_s^0 0 ) ) RFN1_CT ) ) ) 0 ) ( = ( + ( * ( - 1 ) lam13n0 ) ( - ( - ( + 0 RFN1___const_255^0 ) RFN1___const_255^0 ) ) ) 0 ) ( = ( + ( * 1 lam13n0 ) ( * ( - 1 ) lam13n3 ) ( * Nl3c^01 lam13n5 ) ( - ( - ( + ( + 0 RFN1_c^0 ) ( * RFN1_s^0 1 ) ) RFN1_c^0 ) ) ) 0 ) ( = ( + ( * 1 lam13n4 ) ( * Nl3d^01 lam13n5 ) ( - ( - RFN1_d^0 ) ) ) 0 ) ( = ( + ( * ( - 1 ) lam13n1 ) ( * 1 lam13n2 ) ( * ( - 1 ) lam13n3 ) ( * Nl3f^01 lam13n5 ) ( - ( - ( + 0 RFN1_f^0 ) RFN1_f^0 ) ) ) 0 ) ( = ( + ( * Nl3r^01 lam13n5 ) ( - ( - ( + 0 RFN1_r^0 ) RFN1_r^0 ) ) ) 0 ) ( = ( + ( * 1 lam13n0 ) ( * Nl3s^01 lam13n5 ) ( - ( - ( + 0 ( * RFN1_s^0 1 ) ) RFN1_s^0 ) ) ) 0 ) ) ) ( or ( and ( >= lam4n0 0 ) ( >= lam4n1 0 ) ( >= lam4n2 0 ) ( >= lam4n3 0 ) ( >= lam4n4 0 ) ( >= lam4n5 0 ) ( >= lam4n7 0 ) ( > ( + ( * 1 lam4n2 ) ( * ( - 1 ) lam4n3 ) ( * ( - 1 ) lam4n4 ) ( * 2 lam4n5 ) ( * Nl10CT1 lam4n7 ) ( - 1 ) ) 0 ) ( = ( + ( * 1 lam4n0 ) ( * ( - 1 ) lam4n5 ) ( * Nl10c^01 lam4n7 ) ) 0 ) ( = ( + ( * ( - 1 ) lam4n1 ) ( * 1 lam4n3 ) ( * ( - 1 ) lam4n4 ) ( * Nl10d^01 lam4n7 ) ) 0 ) ( = ( + ( * 1 lam4n4 ) ( * 1 lam4n6 ) ( * Nl10f^01 lam4n7 ) ) 0 ) ( = ( + ( * ( - 1 ) lam4n2 ) ( * Nl10r^01 lam4n7 ) ) 0 ) ( = ( + ( * ( - 1 ) lam4n0 ) ( * Nl10s^01 lam4n7 ) ) 0 ) ( = ( * 1 lam4n2 ) 0 ) ) ( and ( >= lam16n0 0 ) ( >= lam16n1 0 ) ( >= lam16n2 0 ) ( >= lam16n3 0 ) ( >= lam16n4 0 ) ( >= lam16n5 0 ) ( >= lam16n7 0 ) ( > ( + ( * 1 lam16n2 ) ( * ( - 1 ) lam16n3 ) ( * ( - 1 ) lam16n4 ) ( * 2 lam16n5 ) ( * Nl10CT1 lam16n7 ) ( - 1 ( - ( + ( + RFN1_CT ( * RFN1_d^0 1 ) ) ( * RFN1_s^0 0 ) ) RFN1_CT ) ) ) 0 ) ( = ( - ( - ( + 0 RFN1___const_255^0 ) RFN1___const_255^0 ) ) 0 ) ( = ( + ( * 1 lam16n0 ) ( * ( - 1 ) lam16n5 ) ( * Nl10c^01 lam16n7 ) ( - ( - ( + ( + 0 RFN1_c^0 ) ( * RFN1_s^0 ( - 1 ) ) ) RFN1_c^0 ) ) ) 0 ) ( = ( + ( * ( - 1 ) lam16n1 ) ( * 1 lam16n3 ) ( * ( - 1 ) lam16n4 ) ( * Nl10d^01 lam16n7 ) ( - ( - RFN1_d^0 ) ) ) 0 ) ( = ( + ( * 1 lam16n4 ) ( * 1 lam16n6 ) ( * Nl10f^01 lam16n7 ) ( - ( - ( + 0 RFN1_f^0 ) RFN1_f^0 ) ) ) 0 ) ( = ( + ( * ( - 1 ) lam16n2 ) ( * Nl10r^01 lam16n7 ) ( - ( - ( + 0 RFN1_r^0 ) RFN1_r^0 ) ) ) 0 ) ( = ( + ( * ( - 1 ) lam16n0 ) ( * Nl10s^01 lam16n7 ) ( - ( - ( + 0 ( * RFN1_s^0 1 ) ) RFN1_s^0 ) ) ) 0 ) ( = ( * 1 lam16n2 ) 0 ) ) ) ))
(assert ( and ( and ( and ( >= lam14n0 0 ) ( >= lam14n1 0 ) ( >= lam14n2 0 ) ( >= lam14n3 0 ) ( >= lam14n4 0 ) ( >= lam14n5 0 ) ( >= lam14n7 0 ) ( > ( + ( * 1 lam14n2 ) ( * ( - 1 ) lam14n3 ) ( * ( - 1 ) lam14n4 ) ( * 2 lam14n5 ) ( * Nl10CT1 lam14n7 ) ( - 1 ( - RFN1_CT ) ) ) 0 ) ( = ( - ( - RFN1___const_255^0 ) ) 0 ) ( = ( + ( * 1 lam14n0 ) ( * ( - 1 ) lam14n5 ) ( * Nl10c^01 lam14n7 ) ( - ( - RFN1_c^0 ) ) ) 0 ) ( = ( + ( * ( - 1 ) lam14n1 ) ( * 1 lam14n3 ) ( * ( - 1 ) lam14n4 ) ( * Nl10d^01 lam14n7 ) ( - ( - RFN1_d^0 ) ) ) 0 ) ( = ( + ( * 1 lam14n4 ) ( * 1 lam14n6 ) ( * Nl10f^01 lam14n7 ) ( - ( - RFN1_f^0 ) ) ) 0 ) ( = ( + ( * ( - 1 ) lam14n2 ) ( * Nl10r^01 lam14n7 ) ( - ( - RFN1_r^0 ) ) ) 0 ) ( = ( + ( * ( - 1 ) lam14n0 ) ( * Nl10s^01 lam14n7 ) ( - ( - RFN1_s^0 ) ) ) 0 ) ( = ( * 1 lam14n2 ) 0 ) ) ( and ( >= lam15n0 0 ) ( >= lam15n1 0 ) ( >= lam15n2 0 ) ( >= lam15n3 0 ) ( >= lam15n4 0 ) ( >= lam15n5 0 ) ( >= lam15n7 0 ) ( > ( + ( * 1 lam15n2 ) ( * ( - 1 ) lam15n3 ) ( * ( - 1 ) lam15n4 ) ( * 2 lam15n5 ) ( * Nl10CT1 lam15n7 ) ( - 1 ( + ( - ( + ( + RFN1_CT ( * RFN1_d^0 1 ) ) ( * RFN1_s^0 0 ) ) RFN1_CT ) 1 ) ) ) 0 ) ( = ( - ( - ( + 0 RFN1___const_255^0 ) RFN1___const_255^0 ) ) 0 ) ( = ( + ( * 1 lam15n0 ) ( * ( - 1 ) lam15n5 ) ( * Nl10c^01 lam15n7 ) ( - ( - ( + ( + 0 RFN1_c^0 ) ( * RFN1_s^0 ( - 1 ) ) ) RFN1_c^0 ) ) ) 0 ) ( = ( + ( * ( - 1 ) lam15n1 ) ( * 1 lam15n3 ) ( * ( - 1 ) lam15n4 ) ( * Nl10d^01 lam15n7 ) ( - ( - RFN1_d^0 ) ) ) 0 ) ( = ( + ( * 1 lam15n4 ) ( * 1 lam15n6 ) ( * Nl10f^01 lam15n7 ) ( - ( - ( + 0 RFN1_f^0 ) RFN1_f^0 ) ) ) 0 ) ( = ( + ( * ( - 1 ) lam15n2 ) ( * Nl10r^01 lam15n7 ) ( - ( - ( + 0 RFN1_r^0 ) RFN1_r^0 ) ) ) 0 ) ( = ( + ( * ( - 1 ) lam15n0 ) ( * Nl10s^01 lam15n7 ) ( - ( - ( + 0 ( * RFN1_s^0 1 ) ) RFN1_s^0 ) ) ) 0 ) ( = ( * 1 lam15n2 ) 0 ) ) ) ( and ( >= lam17n0 0 ) ( >= lam17n1 0 ) ( >= lam17n2 0 ) ( >= lam17n3 0 ) ( >= lam17n4 0 ) ( >= lam17n5 0 ) ( >= lam17n7 0 ) ( > ( + ( * 1 lam17n2 ) ( * ( - 1 ) lam17n3 ) ( * ( - 1 ) lam17n4 ) ( * 2 lam17n5 ) ( * ( + ( - Nl10CT1 ) 1 ) lam17n7 ) ( - 1 ) ) 0 ) ( = ( + ( * 1 lam17n0 ) ( * ( - 1 ) lam17n5 ) ( * ( - Nl10c^01 ) lam17n7 ) ) 0 ) ( = ( + ( * ( - 1 ) lam17n1 ) ( * 1 lam17n3 ) ( * ( - 1 ) lam17n4 ) ( * ( - Nl10d^01 ) lam17n7 ) ) 0 ) ( = ( + ( * 1 lam17n4 ) ( * 1 lam17n6 ) ( * ( - Nl10f^01 ) lam17n7 ) ) 0 ) ( = ( + ( * ( - 1 ) lam17n2 ) ( * ( - Nl10r^01 ) lam17n7 ) ) 0 ) ( = ( + ( * ( - 1 ) lam17n0 ) ( * ( - Nl10s^01 ) lam17n7 ) ) 0 ) ( = ( * 1 lam17n2 ) 0 ) ) ))
(check-sat)
(exit)
